20

0	120	340
1	450	210
2	780	160
3	690	480
4	210	560
5	140	150
6	90	390
7	520	310
8	350	400
9	370	230
10	580	130
11	700	340
12	490	520
13	260	420
14	820	360
15	610	560
16	180	260
17	330	140
18	760	520
19	420	300

5	9
9	7
5	8
12	11
2	10
10	8
1	0
0	4
6	8
6	9
4	7
7	3
11	2
3	11
10	1
12	4
7	10
7	12
7	2
13	4
14	2
15	3
16	5
17	1
18	14
19	7
16	9
13	8
15	12
18	11
